
Gurobi 10.0.2 (linux64, Python) logging started Wed Jul 17 12:04:14 2024

Set parameter Username
Set parameter LogFile to value "gurobi.log"
Academic license - for non-commercial use only - expires 2025-07-10
Read LP format model from file RLPM.lp
Reading time = 0.01 seconds
objective: 22830 rows, 3044 columns, 29474 nonzeros
Gurobi Optimizer version 10.0.2 build v10.0.2rc0 (linux64)

CPU model: 12th Gen Intel(R) Core(TM) i7-12700F, instruction set [SSE2|AVX|AVX2]
Thread count: 10 physical cores, 20 logical processors, using up to 20 threads

Optimize a model with 22830 rows, 3044 columns and 29474 nonzeros
Model fingerprint: 0x00b62e49
Variable types: 0 continuous, 3044 integer (3044 binary)
Coefficient statistics:
  Matrix range     [1e+00, 5e+01]
  Objective range  [5e+01, 1e+06]
  Bounds range     [1e+00, 1e+00]
  RHS range        [1e+00, 5e+02]
Presolve removed 22830 rows and 3044 columns
Presolve time: 0.01s
Presolve: All rows and columns removed

Explored 0 nodes (0 simplex iterations) in 0.02 seconds (0.02 work units)
Thread count was 1 (of 20 available processors)

Solution count 1: 3.28236e+07 

Optimal solution found (tolerance 1.00e-04)
Best objective 3.282357633190e+07, best bound 3.282357633190e+07, gap 0.0000%
